p cnf 51 175
3 1 0
3 2 0
-1 -2 -3 0
5 1 0
5 -4 0
-1 4 -5 0
7 -5 0
7 6 0
5 -6 -7 0
-6 8 -9 0
6 -8 -9 0
-6 -8 9 0
6 8 9 0
10 7 0
10 9 0
-7 -9 -10 0
12 7 0
12 -11 0
-7 11 -12 0
-14 -1 0
-14 13 0
1 -13 14 0
-12 14 -15 0
12 -14 -15 0
-12 -14 15 0
12 14 15 0
16 10 0
16 -15 0
-10 15 -16 0
-18 17 0
-18 5 0
-17 -5 18 0
-18 17 -19 0
18 -17 -19 0
-18 -17 19 0
18 17 19 0
1 -19 -20 0
-1 19 -20 0
1 19 20 0
-1 -19 20 0
21 -20 0
21 13 0
20 -13 -21 0
-8 1 -22 0
8 -1 -22 0
-8 -1 22 0
8 1 22 0
-21 22 -23 0
21 -22 -23 0
-21 -22 23 0
21 22 23 0
16 23 -24 0
-16 -23 -24 0
16 -23 24 0
-16 23 24 0
3 -24 -25 0
-3 24 -25 0
3 24 25 0
-3 -24 25 0
26 -7 0
26 -4 0
7 4 -26 0
-27 -26 0
-27 -1 0
26 1 27 0
28 -5 0
28 -19 0
5 19 -28 0
29 27 0
29 28 0
-27 -28 -29 0
-30 -8 0
-30 5 0
8 -5 30 0
-31 20 0
-31 -30 0
-20 30 31 0
-32 -29 0
-32 31 0
29 -31 32 0
33 -17 -34 0
-33 17 -34 0
33 17 34 0
-33 -17 34 0
35 -1 0
35 34 0
1 -34 -35 0
-36 17 0
-36 -35 0
-17 35 36 0
37 -2 0
37 36 0
2 -36 -37 0
38 32 0
38 -37 0
-32 37 -38 0
-6 -17 -39 0
6 17 -39 0
-6 17 39 0
6 -17 39 0
41 -4 0
41 -13 0
4 13 -41 0
42 -40 0
42 41 0
40 -41 -42 0
17 -43 0
-17 -43 0
44 -33 0
44 43 0
33 -43 -44 0
45 -42 0
45 -44 0
42 44 -45 0
-39 45 -46 0
39 -45 -46 0
-39 -45 46 0
39 45 46 0
-43 18 -47 0
43 -18 -47 0
-43 -18 47 0
43 18 47 0
-48 47 0
-48 -7 0
-47 7 48 0
-49 -46 0
-49 -48 0
46 48 49 0
50 -38 0
50 -49 0
38 49 -50 0
51 -25 0
51 50 0
25 -50 -51 0
-25 4 41 0
19 -36 -27 7 44 0
28 -3 -20 33 -29 -24 0
8 36 4 -12 14 39 0
-34 14 -3 -51 13 -39 0
5 22 32 -17 47 -31 0
39 -42 23 -30 43 19 0
48 22 13 0
1 -18 0
19 44 11 33 12 0
-43 -11 -27 31 38 0
45 -41 26 36 -24 31 0
-30 50 39 42 -22 0
48 -22 -9 46 -2 0
-40 -17 1 0
-38 -2 16 43 -39 50 0
-10 51 47 -17 -22 0
43 45 49 10 0
-24 3 37 29 0
-38 20 -11 0
23 -35 0
24 -7 -38 0
5 -28 29 49 -34 0
-44 10 0
4 5 34 49 39 0
-9 -16 -19 8 0
45 6 -14 4 0
22 -29 -39 24 0
27 -23 18 0
37 -50 -21 16 26 0
13 -1 40 0
50 33 40 11 0
-21 -27 45 -46 40 0
18 2 16 -44 -6 0
-3 -48 0
49 8 0
-5 6 0
-1 13 0
-45 28 31 1 0
-36 48 25 51 0
51 0
